benchmark/results/graph__10-1000-0.10-03_12/graph__10-1000-0.10-03_12_QuintonOs_Benders_sub.lp
\ This file has been generated by DOcplex
\ ENCODING=ISO-8859-1
\Problem name: Quinton Bounded Benders_dual_sub

Minimize
 obj: 0.001338688086 pi_nr_a0 + 0.001531393568 pi_nr_a1
      + 0.001488095238 pi_nr_a2 + 0.001037344398 pi_nr_a3
      + 0.000816993464 pi_nr_a4 + 0.001396648045 pi_nr_a5
      + 0.000934579439 pi_nr_a6 + 0.002732240437 pi_nr_a7
      + 0.001739130435 pi_nr_a8 + 0.000974658869 pi_nr_a9 + pi_p_a4_a5
      + pi_p_a4_a7 + pi_p_a8_a0 + 1292 pi_d_a0_a1_proc_2
      + 1292 pi_d_a0_a1_proc_1 + 2571 pi_d_a0_a1_proc_0 + 1267 pi_d_a1_a0_proc_2
      + 1267 pi_d_a1_a0_proc_1 + 2546 pi_d_a1_a0_proc_0 + 2571 pi_d_a0_a2_proc_2
      + 1292 pi_d_a0_a2_proc_1 + 1292 pi_d_a0_a2_proc_0 + 2546 pi_d_a2_a0_proc_2
      + 1267 pi_d_a2_a0_proc_1 + 1267 pi_d_a2_a0_proc_0 + 1292 pi_d_a0_a3_proc_1
      + 1292 pi_d_a0_a3_proc_0 + 1267 pi_d_a3_a0_proc_1 + 1267 pi_d_a3_a0_proc_0
      + 1292 pi_d_a0_a4_proc_2 + 2571 pi_d_a0_a4_proc_0 + 1267 pi_d_a4_a0_proc_2
      + 2546 pi_d_a4_a0_proc_0 + 1267 pi_d_a0_a5_proc_1 + 1267 pi_d_a0_a5_proc_0
      + 1292 pi_d_a5_a0_proc_1 + 1292 pi_d_a5_a0_proc_0 + 2571 pi_d_a0_a6_proc_2
      + 1292 pi_d_a0_a6_proc_1 + 1292 pi_d_a0_a6_proc_0 + 2546 pi_d_a6_a0_proc_2
      + 1267 pi_d_a6_a0_proc_1 + 1267 pi_d_a6_a0_proc_0 + 2559 pi_d_a0_a7_proc_2
      + pi_d_a0_a7_proc_1 + 2559 pi_d_a0_a7_proc_0 + 2558 pi_d_a7_a0_proc_2
      + 2558 pi_d_a7_a0_proc_0 + 2558 pi_d_a0_a8_proc_2 + 2558 pi_d_a0_a8_proc_0
      + 2559 pi_d_a8_a0_proc_2 + pi_d_a8_a0_proc_1 + 2559 pi_d_a8_a0_proc_0
      + 2558 pi_d_a0_a9_proc_2 + 2559 pi_d_a9_a0_proc_2 + pi_d_a9_a0_proc_1
      + 1292 pi_d_a1_a2_proc_2 + 2571 pi_d_a1_a2_proc_1 + 1292 pi_d_a1_a2_proc_0
      + 1267 pi_d_a2_a1_proc_2 + 2546 pi_d_a2_a1_proc_1 + 1267 pi_d_a2_a1_proc_0
      + 2571 pi_d_a1_a3_proc_1 + 1292 pi_d_a1_a3_proc_0 + 2546 pi_d_a3_a1_proc_1
      + 1267 pi_d_a3_a1_proc_0 + 2558 pi_d_a1_a4_proc_0 + pi_d_a4_a1_proc_2
      + 2559 pi_d_a4_a1_proc_0 + 2571 pi_d_a1_a5_proc_1 + 1292 pi_d_a1_a5_proc_0
      + 2546 pi_d_a5_a1_proc_1 + 1267 pi_d_a5_a1_proc_0 + 1292 pi_d_a1_a6_proc_2
      + 2571 pi_d_a1_a6_proc_1 + 1292 pi_d_a1_a6_proc_0 + 1267 pi_d_a6_a1_proc_2
      + 2546 pi_d_a6_a1_proc_1 + 1267 pi_d_a6_a1_proc_0 + 1292 pi_d_a1_a7_proc_2
      + 1292 pi_d_a1_a7_proc_1 + 2571 pi_d_a1_a7_proc_0 + 1267 pi_d_a7_a1_proc_2
      + 1267 pi_d_a7_a1_proc_1 + 2546 pi_d_a7_a1_proc_0 + 1267 pi_d_a1_a8_proc_2
      + 1267 pi_d_a1_a8_proc_1 + 2546 pi_d_a1_a8_proc_0 + 1292 pi_d_a8_a1_proc_2
      + 1292 pi_d_a8_a1_proc_1 + 2571 pi_d_a8_a1_proc_0 + 1292 pi_d_a1_a9_proc_2
      + 1292 pi_d_a1_a9_proc_1 + 1267 pi_d_a9_a1_proc_2 + 1267 pi_d_a9_a1_proc_1
      + 2558 pi_d_a2_a3_proc_1 + 2559 pi_d_a3_a2_proc_1 + pi_d_a3_a2_proc_0
      + 1292 pi_d_a2_a4_proc_2 + 1292 pi_d_a2_a4_proc_0 + 1267 pi_d_a4_a2_proc_2
      + 1267 pi_d_a4_a2_proc_0 + 2559 pi_d_a2_a5_proc_1 + pi_d_a2_a5_proc_0
      + 2558 pi_d_a5_a2_proc_1 + 2559 pi_d_a2_a6_proc_2 + 2559 pi_d_a2_a6_proc_1
      + pi_d_a2_a6_proc_0 + 2558 pi_d_a6_a2_proc_2 + 2558 pi_d_a6_a2_proc_1
      + 2546 pi_d_a2_a7_proc_2 + 1267 pi_d_a2_a7_proc_1 + 1267 pi_d_a2_a7_proc_0
      + 2571 pi_d_a7_a2_proc_2 + 1292 pi_d_a7_a2_proc_1 + 1292 pi_d_a7_a2_proc_0
      + 2546 pi_d_a2_a8_proc_2 + 1267 pi_d_a2_a8_proc_1 + 1267 pi_d_a2_a8_proc_0
      + 2571 pi_d_a8_a2_proc_2 + 1292 pi_d_a8_a2_proc_1 + 1292 pi_d_a8_a2_proc_0
      + 2571 pi_d_a2_a9_proc_2 + 1292 pi_d_a2_a9_proc_1 + 2546 pi_d_a9_a2_proc_2
      + 1267 pi_d_a9_a2_proc_1 + 1292 pi_d_a3_a4_proc_0 + 1267 pi_d_a4_a3_proc_0
      + 2559 pi_d_a3_a5_proc_1 + pi_d_a3_a5_proc_0 + 2558 pi_d_a5_a3_proc_1
      + 2559 pi_d_a3_a6_proc_1 + pi_d_a3_a6_proc_0 + 2558 pi_d_a6_a3_proc_1
      + 1292 pi_d_a3_a7_proc_1 + 1292 pi_d_a3_a7_proc_0 + 1267 pi_d_a7_a3_proc_1
      + 1267 pi_d_a7_a3_proc_0 + 1267 pi_d_a3_a8_proc_1 + 1267 pi_d_a3_a8_proc_0
      + 1292 pi_d_a8_a3_proc_1 + 1292 pi_d_a8_a3_proc_0 + 1292 pi_d_a3_a9_proc_1
      + 1267 pi_d_a9_a3_proc_1 + 1292 pi_d_a4_a5_proc_0 + 1267 pi_d_a5_a4_proc_0
      + 1292 pi_d_a4_a6_proc_2 + 1292 pi_d_a4_a6_proc_0 + 1267 pi_d_a6_a4_proc_2
      + 1267 pi_d_a6_a4_proc_0 + 1292 pi_d_a4_a7_proc_2 + 2571 pi_d_a4_a7_proc_0
      + 1267 pi_d_a7_a4_proc_2 + 2546 pi_d_a7_a4_proc_0 + 1267 pi_d_a4_a8_proc_2
      + 2546 pi_d_a4_a8_proc_0 + 1292 pi_d_a8_a4_proc_2 + 2571 pi_d_a8_a4_proc_0
      + 1292 pi_d_a4_a9_proc_2 + 1267 pi_d_a9_a4_proc_2 + 2558 pi_d_a5_a6_proc_1
      + 2559 pi_d_a6_a5_proc_1 + pi_d_a6_a5_proc_0 + 1267 pi_d_a5_a7_proc_1
      + 1267 pi_d_a5_a7_proc_0 + 1292 pi_d_a7_a5_proc_1 + 1292 pi_d_a7_a5_proc_0
      + 1292 pi_d_a5_a8_proc_1 + 1292 pi_d_a5_a8_proc_0 + 1267 pi_d_a8_a5_proc_1
      + 1267 pi_d_a8_a5_proc_0 + 1292 pi_d_a5_a9_proc_1 + 1267 pi_d_a9_a5_proc_1
      + 2571 pi_d_a6_a7_proc_2 + 1292 pi_d_a6_a7_proc_1 + 1292 pi_d_a6_a7_proc_0
      + 2546 pi_d_a7_a6_proc_2 + 1267 pi_d_a7_a6_proc_1 + 1267 pi_d_a7_a6_proc_0
      + 2546 pi_d_a6_a8_proc_2 + 1267 pi_d_a6_a8_proc_1 + 1267 pi_d_a6_a8_proc_0
      + 2571 pi_d_a8_a6_proc_2 + 1292 pi_d_a8_a6_proc_1 + 1292 pi_d_a8_a6_proc_0
      + 2546 pi_d_a6_a9_proc_2 + 1267 pi_d_a6_a9_proc_1 + 2571 pi_d_a9_a6_proc_2
      + 1292 pi_d_a9_a6_proc_1 + 2558 pi_d_a7_a8_proc_2 + 2558 pi_d_a7_a8_proc_0
      + 2559 pi_d_a8_a7_proc_2 + pi_d_a8_a7_proc_1 + 2559 pi_d_a8_a7_proc_0
      + 2558 pi_d_a7_a9_proc_2 + 2559 pi_d_a9_a7_proc_2 + pi_d_a9_a7_proc_1
      + 2559 pi_d_a8_a9_proc_2 + pi_d_a8_a9_proc_1 + 2558 pi_d_a9_a8_proc_2
      + pi_y2_a0_proc_1 + pi_y2_a1_proc_2 + pi_y2_a2_proc_0 + pi_y2_a3_proc_0
      + pi_y2_a4_proc_2 + pi_y2_a5_proc_0 + pi_y2_a6_proc_0 + pi_y2_a7_proc_1
      + pi_y2_a8_proc_1 + pi_y2_a9_proc_1
Subject To
 c1: pi_nr_a0 + pi_nr_a1 + pi_nr_a2 + pi_nr_a3 + pi_nr_a4 + pi_nr_a5 + pi_nr_a6
     + pi_nr_a7 + pi_nr_a8 + pi_nr_a9 - pi_y1_a0 - pi_y1_a1 - pi_y1_a2
     - pi_y1_a3 - pi_y1_a4 - pi_y1_a5 - pi_y1_a6 - pi_y1_a7 - pi_y1_a8
     - pi_y1_a9 >= 1
 c2: - pi_p_a1_a0 + pi_p_a0_a2 - pi_p_a8_a0 + pi_d_a0_a1_proc_2
     + pi_d_a0_a1_proc_1 + pi_d_a0_a1_proc_0 - pi_d_a1_a0_proc_2
     - pi_d_a1_a0_proc_1 - pi_d_a1_a0_proc_0 + pi_d_a0_a2_proc_2
     + pi_d_a0_a2_proc_1 + pi_d_a0_a2_proc_0 - pi_d_a2_a0_proc_2
     - pi_d_a2_a0_proc_1 - pi_d_a2_a0_proc_0 + pi_d_a0_a3_proc_1
     + pi_d_a0_a3_proc_0 - pi_d_a3_a0_proc_1 - pi_d_a3_a0_proc_0
     + pi_d_a0_a4_proc_2 + pi_d_a0_a4_proc_0 - pi_d_a4_a0_proc_2
     - pi_d_a4_a0_proc_0 + pi_d_a0_a5_proc_1 + pi_d_a0_a5_proc_0
     - pi_d_a5_a0_proc_1 - pi_d_a5_a0_proc_0 + pi_d_a0_a6_proc_2
     + pi_d_a0_a6_proc_1 + pi_d_a0_a6_proc_0 - pi_d_a6_a0_proc_2
     - pi_d_a6_a0_proc_1 - pi_d_a6_a0_proc_0 + pi_d_a0_a7_proc_2
     + pi_d_a0_a7_proc_1 + pi_d_a0_a7_proc_0 - pi_d_a7_a0_proc_2
     - pi_d_a7_a0_proc_1 - pi_d_a7_a0_proc_0 + pi_d_a0_a8_proc_2
     + pi_d_a0_a8_proc_1 + pi_d_a0_a8_proc_0 - pi_d_a8_a0_proc_2
     - pi_d_a8_a0_proc_1 - pi_d_a8_a0_proc_0 + pi_d_a0_a9_proc_2
     + pi_d_a0_a9_proc_1 - pi_d_a9_a0_proc_2 - pi_d_a9_a0_proc_1 >= 0
 c3: 937 pi_p_a0_a2 + 937 pi_d_a0_a1_proc_0 + 937 pi_d_a0_a2_proc_0
     + 937 pi_d_a0_a3_proc_0 + 937 pi_d_a0_a4_proc_0 + 937 pi_d_a0_a5_proc_0
     + 937 pi_d_a0_a6_proc_0 + 937 pi_d_a0_a7_proc_0 + 937 pi_d_a0_a8_proc_0
     + pi_y1_a0 + pi_y2_a0_proc_0 >= 0
 c4: 747 pi_p_a0_a2 + 747 pi_d_a0_a1_proc_1 + 747 pi_d_a0_a2_proc_1
     + 747 pi_d_a0_a3_proc_1 + 747 pi_d_a0_a5_proc_1 + 747 pi_d_a0_a6_proc_1
     + 747 pi_d_a0_a7_proc_1 + 747 pi_d_a0_a8_proc_1 + 747 pi_d_a0_a9_proc_1
     + pi_y1_a0 + pi_y2_a0_proc_1 >= 0
 c5: 1226 pi_p_a0_a2 + 1226 pi_d_a0_a1_proc_2 + 1226 pi_d_a0_a2_proc_2
     + 1226 pi_d_a0_a4_proc_2 + 1226 pi_d_a0_a6_proc_2 + 1226 pi_d_a0_a7_proc_2
     + 1226 pi_d_a0_a8_proc_2 + 1226 pi_d_a0_a9_proc_2 + pi_y1_a0
     + pi_y2_a0_proc_2 >= 0
 c6: pi_p_a1_a0 - pi_p_a7_a1 - pi_d_a0_a1_proc_2 - pi_d_a0_a1_proc_1
     - pi_d_a0_a1_proc_0 + pi_d_a1_a0_proc_2 + pi_d_a1_a0_proc_1
     + pi_d_a1_a0_proc_0 + pi_d_a1_a2_proc_2 + pi_d_a1_a2_proc_1
     + pi_d_a1_a2_proc_0 - pi_d_a2_a1_proc_2 - pi_d_a2_a1_proc_1
     - pi_d_a2_a1_proc_0 + pi_d_a1_a3_proc_1 + pi_d_a1_a3_proc_0
     - pi_d_a3_a1_proc_1 - pi_d_a3_a1_proc_0 + pi_d_a1_a4_proc_2
     + pi_d_a1_a4_proc_0 - pi_d_a4_a1_proc_2 - pi_d_a4_a1_proc_0
     + pi_d_a1_a5_proc_1 + pi_d_a1_a5_proc_0 - pi_d_a5_a1_proc_1
     - pi_d_a5_a1_proc_0 + pi_d_a1_a6_proc_2 + pi_d_a1_a6_proc_1
     + pi_d_a1_a6_proc_0 - pi_d_a6_a1_proc_2 - pi_d_a6_a1_proc_1
     - pi_d_a6_a1_proc_0 + pi_d_a1_a7_proc_2 + pi_d_a1_a7_proc_1
     + pi_d_a1_a7_proc_0 - pi_d_a7_a1_proc_2 - pi_d_a7_a1_proc_1
     - pi_d_a7_a1_proc_0 + pi_d_a1_a8_proc_2 + pi_d_a1_a8_proc_1
     + pi_d_a1_a8_proc_0 - pi_d_a8_a1_proc_2 - pi_d_a8_a1_proc_1
     - pi_d_a8_a1_proc_0 + pi_d_a1_a9_proc_2 + pi_d_a1_a9_proc_1
     - pi_d_a9_a1_proc_2 - pi_d_a9_a1_proc_1 >= 0
 c7: 789 pi_p_a1_a0 + 789 pi_d_a1_a0_proc_0 + 789 pi_d_a1_a2_proc_0
     + 789 pi_d_a1_a3_proc_0 + 789 pi_d_a1_a4_proc_0 + 789 pi_d_a1_a5_proc_0
     + 789 pi_d_a1_a6_proc_0 + 789 pi_d_a1_a7_proc_0 + 789 pi_d_a1_a8_proc_0
     + pi_y1_a1 + pi_y2_a1_proc_0 >= 0
 c8: 1184 pi_p_a1_a0 + 1184 pi_d_a1_a0_proc_1 + 1184 pi_d_a1_a2_proc_1
     + 1184 pi_d_a1_a3_proc_1 + 1184 pi_d_a1_a5_proc_1 + 1184 pi_d_a1_a6_proc_1
     + 1184 pi_d_a1_a7_proc_1 + 1184 pi_d_a1_a8_proc_1 + 1184 pi_d_a1_a9_proc_1
     + pi_y1_a1 + pi_y2_a1_proc_1 >= 0
 c9: 653 pi_p_a1_a0 + 653 pi_d_a1_a0_proc_2 + 653 pi_d_a1_a2_proc_2
     + 653 pi_d_a1_a4_proc_2 + 653 pi_d_a1_a6_proc_2 + 653 pi_d_a1_a7_proc_2
     + 653 pi_d_a1_a8_proc_2 + 653 pi_d_a1_a9_proc_2 + pi_y1_a1
     + pi_y2_a1_proc_2 >= 0
 c10: - pi_p_a0_a2 + pi_p_a2_a3 - pi_d_a0_a2_proc_2 - pi_d_a0_a2_proc_1
      - pi_d_a0_a2_proc_0 + pi_d_a2_a0_proc_2 + pi_d_a2_a0_proc_1
      + pi_d_a2_a0_proc_0 - pi_d_a1_a2_proc_2 - pi_d_a1_a2_proc_1
      - pi_d_a1_a2_proc_0 + pi_d_a2_a1_proc_2 + pi_d_a2_a1_proc_1
      + pi_d_a2_a1_proc_0 + pi_d_a2_a3_proc_1 + pi_d_a2_a3_proc_0
      - pi_d_a3_a2_proc_1 - pi_d_a3_a2_proc_0 + pi_d_a2_a4_proc_2
      + pi_d_a2_a4_proc_0 - pi_d_a4_a2_proc_2 - pi_d_a4_a2_proc_0
      + pi_d_a2_a5_proc_1 + pi_d_a2_a5_proc_0 - pi_d_a5_a2_proc_1
      - pi_d_a5_a2_proc_0 + pi_d_a2_a6_proc_2 + pi_d_a2_a6_proc_1
      + pi_d_a2_a6_proc_0 - pi_d_a6_a2_proc_2 - pi_d_a6_a2_proc_1
      - pi_d_a6_a2_proc_0 + pi_d_a2_a7_proc_2 + pi_d_a2_a7_proc_1
      + pi_d_a2_a7_proc_0 - pi_d_a7_a2_proc_2 - pi_d_a7_a2_proc_1
      - pi_d_a7_a2_proc_0 + pi_d_a2_a8_proc_2 + pi_d_a2_a8_proc_1
      + pi_d_a2_a8_proc_0 - pi_d_a8_a2_proc_2 - pi_d_a8_a2_proc_1
      - pi_d_a8_a2_proc_0 + pi_d_a2_a9_proc_2 + pi_d_a2_a9_proc_1
      - pi_d_a9_a2_proc_2 - pi_d_a9_a2_proc_1 >= 0
 c11: 672 pi_p_a2_a3 + 672 pi_d_a2_a0_proc_0 + 672 pi_d_a2_a1_proc_0
      + 672 pi_d_a2_a3_proc_0 + 672 pi_d_a2_a4_proc_0 + 672 pi_d_a2_a5_proc_0
      + 672 pi_d_a2_a6_proc_0 + 672 pi_d_a2_a7_proc_0 + 672 pi_d_a2_a8_proc_0
      + pi_y1_a2 + pi_y2_a2_proc_0 >= 0
 c12: 1020 pi_p_a2_a3 + 1020 pi_d_a2_a0_proc_1 + 1020 pi_d_a2_a1_proc_1
      + 1020 pi_d_a2_a3_proc_1 + 1020 pi_d_a2_a5_proc_1 + 1020 pi_d_a2_a6_proc_1
      + 1020 pi_d_a2_a7_proc_1 + 1020 pi_d_a2_a8_proc_1 + 1020 pi_d_a2_a9_proc_1
      + pi_y1_a2 + pi_y2_a2_proc_1 >= 0
 c13: 812 pi_p_a2_a3 + 812 pi_d_a2_a0_proc_2 + 812 pi_d_a2_a1_proc_2
      + 812 pi_d_a2_a4_proc_2 + 812 pi_d_a2_a6_proc_2 + 812 pi_d_a2_a7_proc_2
      + 812 pi_d_a2_a8_proc_2 + 812 pi_d_a2_a9_proc_2 + pi_y1_a2
      + pi_y2_a2_proc_2 >= 0
 c14: - pi_p_a2_a3 + pi_p_a3_a4 - pi_d_a0_a3_proc_1 - pi_d_a0_a3_proc_0
      + pi_d_a3_a0_proc_1 + pi_d_a3_a0_proc_0 - pi_d_a1_a3_proc_1
      - pi_d_a1_a3_proc_0 + pi_d_a3_a1_proc_1 + pi_d_a3_a1_proc_0
      - pi_d_a2_a3_proc_1 - pi_d_a2_a3_proc_0 + pi_d_a3_a2_proc_1
      + pi_d_a3_a2_proc_0 + pi_d_a3_a4_proc_0 - pi_d_a4_a3_proc_0
      + pi_d_a3_a5_proc_1 + pi_d_a3_a5_proc_0 - pi_d_a5_a3_proc_1
      - pi_d_a5_a3_proc_0 + pi_d_a3_a6_proc_1 + pi_d_a3_a6_proc_0
      - pi_d_a6_a3_proc_1 - pi_d_a6_a3_proc_0 + pi_d_a3_a7_proc_1
      + pi_d_a3_a7_proc_0 - pi_d_a7_a3_proc_1 - pi_d_a7_a3_proc_0
      + pi_d_a3_a8_proc_1 + pi_d_a3_a8_proc_0 - pi_d_a8_a3_proc_1
      - pi_d_a8_a3_proc_0 + pi_d_a3_a9_proc_1 - pi_d_a9_a3_proc_1 >= 0
 c15: 964 pi_p_a3_a4 + 964 pi_d_a3_a0_proc_0 + 964 pi_d_a3_a1_proc_0
      + 964 pi_d_a3_a2_proc_0 + 964 pi_d_a3_a4_proc_0 + 964 pi_d_a3_a5_proc_0
      + 964 pi_d_a3_a6_proc_0 + 964 pi_d_a3_a7_proc_0 + 964 pi_d_a3_a8_proc_0
      + pi_y1_a3 + pi_y2_a3_proc_0 >= 0
 c16: 1074 pi_p_a3_a4 + 1074 pi_d_a3_a0_proc_1 + 1074 pi_d_a3_a1_proc_1
      + 1074 pi_d_a3_a2_proc_1 + 1074 pi_d_a3_a5_proc_1 + 1074 pi_d_a3_a6_proc_1
      + 1074 pi_d_a3_a7_proc_1 + 1074 pi_d_a3_a8_proc_1 + 1074 pi_d_a3_a9_proc_1
      + pi_y1_a3 + pi_y2_a3_proc_1 >= 0
 c17: - pi_p_a3_a4 + pi_p_a4_a5 - pi_p_a5_a4 + pi_p_a4_a7 - pi_d_a0_a4_proc_2
      - pi_d_a0_a4_proc_0 + pi_d_a4_a0_proc_2 + pi_d_a4_a0_proc_0
      - pi_d_a1_a4_proc_2 - pi_d_a1_a4_proc_0 + pi_d_a4_a1_proc_2
      + pi_d_a4_a1_proc_0 - pi_d_a2_a4_proc_2 - pi_d_a2_a4_proc_0
      + pi_d_a4_a2_proc_2 + pi_d_a4_a2_proc_0 - pi_d_a3_a4_proc_0
      + pi_d_a4_a3_proc_0 + pi_d_a4_a5_proc_0 - pi_d_a5_a4_proc_0
      + pi_d_a4_a6_proc_2 + pi_d_a4_a6_proc_0 - pi_d_a6_a4_proc_2
      - pi_d_a6_a4_proc_0 + pi_d_a4_a7_proc_2 + pi_d_a4_a7_proc_0
      - pi_d_a7_a4_proc_2 - pi_d_a7_a4_proc_0 + pi_d_a4_a8_proc_2
      + pi_d_a4_a8_proc_0 - pi_d_a8_a4_proc_2 - pi_d_a8_a4_proc_0
      + pi_d_a4_a9_proc_2 - pi_d_a9_a4_proc_2 >= 0
 c18: 1271 pi_p_a4_a5 + 1271 pi_p_a4_a7 + 1271 pi_d_a4_a0_proc_0
      + 1271 pi_d_a4_a1_proc_0 + 1271 pi_d_a4_a2_proc_0 + 1271 pi_d_a4_a3_proc_0
      + 1271 pi_d_a4_a5_proc_0 + 1271 pi_d_a4_a6_proc_0 + 1271 pi_d_a4_a7_proc_0
      + 1271 pi_d_a4_a8_proc_0 + pi_y1_a4 + pi_y2_a4_proc_0 >= 0
 c19: 1224 pi_p_a4_a5 + 1224 pi_p_a4_a7 + 1224 pi_d_a4_a0_proc_2
      + 1224 pi_d_a4_a1_proc_2 + 1224 pi_d_a4_a2_proc_2 + 1224 pi_d_a4_a6_proc_2
      + 1224 pi_d_a4_a7_proc_2 + 1224 pi_d_a4_a8_proc_2 + 1224 pi_d_a4_a9_proc_2
      + pi_y1_a4 + pi_y2_a4_proc_2 >= 0
 c20: - pi_p_a4_a5 + pi_p_a5_a6 + pi_p_a5_a9 + pi_p_a5_a4 - pi_d_a0_a5_proc_1
      - pi_d_a0_a5_proc_0 + pi_d_a5_a0_proc_1 + pi_d_a5_a0_proc_0
      - pi_d_a1_a5_proc_1 - pi_d_a1_a5_proc_0 + pi_d_a5_a1_proc_1
      + pi_d_a5_a1_proc_0 - pi_d_a2_a5_proc_1 - pi_d_a2_a5_proc_0
      + pi_d_a5_a2_proc_1 + pi_d_a5_a2_proc_0 - pi_d_a3_a5_proc_1
      - pi_d_a3_a5_proc_0 + pi_d_a5_a3_proc_1 + pi_d_a5_a3_proc_0
      - pi_d_a4_a5_proc_0 + pi_d_a5_a4_proc_0 + pi_d_a5_a6_proc_1
      + pi_d_a5_a6_proc_0 - pi_d_a6_a5_proc_1 - pi_d_a6_a5_proc_0
      + pi_d_a5_a7_proc_1 + pi_d_a5_a7_proc_0 - pi_d_a7_a5_proc_1
      - pi_d_a7_a5_proc_0 + pi_d_a5_a8_proc_1 + pi_d_a5_a8_proc_0
      - pi_d_a8_a5_proc_1 - pi_d_a8_a5_proc_0 + pi_d_a5_a9_proc_1
      - pi_d_a9_a5_proc_1 >= 0
 c21: 716 pi_p_a5_a6 + 716 pi_p_a5_a9 + 716 pi_p_a5_a4 + 716 pi_d_a5_a0_proc_0
      + 716 pi_d_a5_a1_proc_0 + 716 pi_d_a5_a2_proc_0 + 716 pi_d_a5_a3_proc_0
      + 716 pi_d_a5_a4_proc_0 + 716 pi_d_a5_a6_proc_0 + 716 pi_d_a5_a7_proc_0
      + 716 pi_d_a5_a8_proc_0 + pi_y1_a5 + pi_y2_a5_proc_0 >= 0
 c22: 700 pi_p_a5_a6 + 700 pi_p_a5_a9 + 700 pi_p_a5_a4 + 700 pi_d_a5_a0_proc_1
      + 700 pi_d_a5_a1_proc_1 + 700 pi_d_a5_a2_proc_1 + 700 pi_d_a5_a3_proc_1
      + 700 pi_d_a5_a6_proc_1 + 700 pi_d_a5_a7_proc_1 + 700 pi_d_a5_a8_proc_1
      + 700 pi_d_a5_a9_proc_1 + pi_y1_a5 + pi_y2_a5_proc_1 >= 0
 c23: - pi_p_a5_a6 + pi_p_a6_a8 - pi_d_a0_a6_proc_2 - pi_d_a0_a6_proc_1
      - pi_d_a0_a6_proc_0 + pi_d_a6_a0_proc_2 + pi_d_a6_a0_proc_1
      + pi_d_a6_a0_proc_0 - pi_d_a1_a6_proc_2 - pi_d_a1_a6_proc_1
      - pi_d_a1_a6_proc_0 + pi_d_a6_a1_proc_2 + pi_d_a6_a1_proc_1
      + pi_d_a6_a1_proc_0 - pi_d_a2_a6_proc_2 - pi_d_a2_a6_proc_1
      - pi_d_a2_a6_proc_0 + pi_d_a6_a2_proc_2 + pi_d_a6_a2_proc_1
      + pi_d_a6_a2_proc_0 - pi_d_a3_a6_proc_1 - pi_d_a3_a6_proc_0
      + pi_d_a6_a3_proc_1 + pi_d_a6_a3_proc_0 - pi_d_a4_a6_proc_2
      - pi_d_a4_a6_proc_0 + pi_d_a6_a4_proc_2 + pi_d_a6_a4_proc_0
      - pi_d_a5_a6_proc_1 - pi_d_a5_a6_proc_0 + pi_d_a6_a5_proc_1
      + pi_d_a6_a5_proc_0 + pi_d_a6_a7_proc_2 + pi_d_a6_a7_proc_1
      + pi_d_a6_a7_proc_0 - pi_d_a7_a6_proc_2 - pi_d_a7_a6_proc_1
      - pi_d_a7_a6_proc_0 + pi_d_a6_a8_proc_2 + pi_d_a6_a8_proc_1
      + pi_d_a6_a8_proc_0 - pi_d_a8_a6_proc_2 - pi_d_a8_a6_proc_1
      - pi_d_a8_a6_proc_0 + pi_d_a6_a9_proc_2 + pi_d_a6_a9_proc_1
      - pi_d_a9_a6_proc_2 - pi_d_a9_a6_proc_1 >= 0
 c24: 1070 pi_p_a6_a8 + 1070 pi_d_a6_a0_proc_0 + 1070 pi_d_a6_a1_proc_0
      + 1070 pi_d_a6_a2_proc_0 + 1070 pi_d_a6_a3_proc_0 + 1070 pi_d_a6_a4_proc_0
      + 1070 pi_d_a6_a5_proc_0 + 1070 pi_d_a6_a7_proc_0 + 1070 pi_d_a6_a8_proc_0
      + pi_y1_a6 + pi_y2_a6_proc_0 >= 0
 c25: 1046 pi_p_a6_a8 + 1046 pi_d_a6_a0_proc_1 + 1046 pi_d_a6_a1_proc_1
      + 1046 pi_d_a6_a2_proc_1 + 1046 pi_d_a6_a3_proc_1 + 1046 pi_d_a6_a5_proc_1
      + 1046 pi_d_a6_a7_proc_1 + 1046 pi_d_a6_a8_proc_1 + 1046 pi_d_a6_a9_proc_1
      + pi_y1_a6 + pi_y2_a6_proc_1 >= 0
 c26: 1019 pi_p_a6_a8 + 1019 pi_d_a6_a0_proc_2 + 1019 pi_d_a6_a1_proc_2
      + 1019 pi_d_a6_a2_proc_2 + 1019 pi_d_a6_a4_proc_2 + 1019 pi_d_a6_a7_proc_2
      + 1019 pi_d_a6_a8_proc_2 + 1019 pi_d_a6_a9_proc_2 + pi_y1_a6
      + pi_y2_a6_proc_2 >= 0
 c27: pi_p_a7_a1 - pi_p_a4_a7 - pi_d_a0_a7_proc_2 - pi_d_a0_a7_proc_1
      - pi_d_a0_a7_proc_0 + pi_d_a7_a0_proc_2 + pi_d_a7_a0_proc_1
      + pi_d_a7_a0_proc_0 - pi_d_a1_a7_proc_2 - pi_d_a1_a7_proc_1
      - pi_d_a1_a7_proc_0 + pi_d_a7_a1_proc_2 + pi_d_a7_a1_proc_1
      + pi_d_a7_a1_proc_0 - pi_d_a2_a7_proc_2 - pi_d_a2_a7_proc_1
      - pi_d_a2_a7_proc_0 + pi_d_a7_a2_proc_2 + pi_d_a7_a2_proc_1
      + pi_d_a7_a2_proc_0 - pi_d_a3_a7_proc_1 - pi_d_a3_a7_proc_0
      + pi_d_a7_a3_proc_1 + pi_d_a7_a3_proc_0 - pi_d_a4_a7_proc_2
      - pi_d_a4_a7_proc_0 + pi_d_a7_a4_proc_2 + pi_d_a7_a4_proc_0
      - pi_d_a5_a7_proc_1 - pi_d_a5_a7_proc_0 + pi_d_a7_a5_proc_1
      + pi_d_a7_a5_proc_0 - pi_d_a6_a7_proc_2 - pi_d_a6_a7_proc_1
      - pi_d_a6_a7_proc_0 + pi_d_a7_a6_proc_2 + pi_d_a7_a6_proc_1
      + pi_d_a7_a6_proc_0 + pi_d_a7_a8_proc_2 + pi_d_a7_a8_proc_1
      + pi_d_a7_a8_proc_0 - pi_d_a8_a7_proc_2 - pi_d_a8_a7_proc_1
      - pi_d_a8_a7_proc_0 + pi_d_a7_a9_proc_2 + pi_d_a7_a9_proc_1
      - pi_d_a9_a7_proc_2 - pi_d_a9_a7_proc_1 >= 0
 c28: 686 pi_p_a7_a1 + 686 pi_d_a7_a0_proc_0 + 686 pi_d_a7_a1_proc_0
      + 686 pi_d_a7_a2_proc_0 + 686 pi_d_a7_a3_proc_0 + 686 pi_d_a7_a4_proc_0
      + 686 pi_d_a7_a5_proc_0 + 686 pi_d_a7_a6_proc_0 + 686 pi_d_a7_a8_proc_0
      + pi_y1_a7 + pi_y2_a7_proc_0 >= 0
 c29: 366 pi_p_a7_a1 + 366 pi_d_a7_a0_proc_1 + 366 pi_d_a7_a1_proc_1
      + 366 pi_d_a7_a2_proc_1 + 366 pi_d_a7_a3_proc_1 + 366 pi_d_a7_a5_proc_1
      + 366 pi_d_a7_a6_proc_1 + 366 pi_d_a7_a8_proc_1 + 366 pi_d_a7_a9_proc_1
      + pi_y1_a7 + pi_y2_a7_proc_1 >= 0
 c30: 1279 pi_p_a7_a1 + 1279 pi_d_a7_a0_proc_2 + 1279 pi_d_a7_a1_proc_2
      + 1279 pi_d_a7_a2_proc_2 + 1279 pi_d_a7_a4_proc_2 + 1279 pi_d_a7_a6_proc_2
      + 1279 pi_d_a7_a8_proc_2 + 1279 pi_d_a7_a9_proc_2 + pi_y1_a7
      + pi_y2_a7_proc_2 >= 0
 c31: - pi_p_a6_a8 + pi_p_a8_a0 - pi_p_a9_a8 - pi_d_a0_a8_proc_2
      - pi_d_a0_a8_proc_1 - pi_d_a0_a8_proc_0 + pi_d_a8_a0_proc_2
      + pi_d_a8_a0_proc_1 + pi_d_a8_a0_proc_0 - pi_d_a1_a8_proc_2
      - pi_d_a1_a8_proc_1 - pi_d_a1_a8_proc_0 + pi_d_a8_a1_proc_2
      + pi_d_a8_a1_proc_1 + pi_d_a8_a1_proc_0 - pi_d_a2_a8_proc_2
      - pi_d_a2_a8_proc_1 - pi_d_a2_a8_proc_0 + pi_d_a8_a2_proc_2
      + pi_d_a8_a2_proc_1 + pi_d_a8_a2_proc_0 - pi_d_a3_a8_proc_1
      - pi_d_a3_a8_proc_0 + pi_d_a8_a3_proc_1 + pi_d_a8_a3_proc_0
      - pi_d_a4_a8_proc_2 - pi_d_a4_a8_proc_0 + pi_d_a8_a4_proc_2
      + pi_d_a8_a4_proc_0 - pi_d_a5_a8_proc_1 - pi_d_a5_a8_proc_0
      + pi_d_a8_a5_proc_1 + pi_d_a8_a5_proc_0 - pi_d_a6_a8_proc_2
      - pi_d_a6_a8_proc_1 - pi_d_a6_a8_proc_0 + pi_d_a8_a6_proc_2
      + pi_d_a8_a6_proc_1 + pi_d_a8_a6_proc_0 - pi_d_a7_a8_proc_2
      - pi_d_a7_a8_proc_1 - pi_d_a7_a8_proc_0 + pi_d_a8_a7_proc_2
      + pi_d_a8_a7_proc_1 + pi_d_a8_a7_proc_0 + pi_d_a8_a9_proc_2
      + pi_d_a8_a9_proc_1 - pi_d_a9_a8_proc_2 - pi_d_a9_a8_proc_1 >= 0
 c32: 1006 pi_p_a8_a0 + 1006 pi_d_a8_a0_proc_0 + 1006 pi_d_a8_a1_proc_0
      + 1006 pi_d_a8_a2_proc_0 + 1006 pi_d_a8_a3_proc_0 + 1006 pi_d_a8_a4_proc_0
      + 1006 pi_d_a8_a5_proc_0 + 1006 pi_d_a8_a6_proc_0 + 1006 pi_d_a8_a7_proc_0
      + pi_y1_a8 + pi_y2_a8_proc_0 >= 0
 c33: 575 pi_p_a8_a0 + 575 pi_d_a8_a0_proc_1 + 575 pi_d_a8_a1_proc_1
      + 575 pi_d_a8_a2_proc_1 + 575 pi_d_a8_a3_proc_1 + 575 pi_d_a8_a5_proc_1
      + 575 pi_d_a8_a6_proc_1 + 575 pi_d_a8_a7_proc_1 + 575 pi_d_a8_a9_proc_1
      + pi_y1_a8 + pi_y2_a8_proc_1 >= 0
 c34: 806 pi_p_a8_a0 + 806 pi_d_a8_a0_proc_2 + 806 pi_d_a8_a1_proc_2
      + 806 pi_d_a8_a2_proc_2 + 806 pi_d_a8_a4_proc_2 + 806 pi_d_a8_a6_proc_2
      + 806 pi_d_a8_a7_proc_2 + 806 pi_d_a8_a9_proc_2 + pi_y1_a8
      + pi_y2_a8_proc_2 >= 0
 c35: - pi_p_a5_a9 + pi_p_a9_a8 - pi_d_a0_a9_proc_2 - pi_d_a0_a9_proc_1
      + pi_d_a9_a0_proc_2 + pi_d_a9_a0_proc_1 - pi_d_a1_a9_proc_2
      - pi_d_a1_a9_proc_1 + pi_d_a9_a1_proc_2 + pi_d_a9_a1_proc_1
      - pi_d_a2_a9_proc_2 - pi_d_a2_a9_proc_1 + pi_d_a9_a2_proc_2
      + pi_d_a9_a2_proc_1 - pi_d_a3_a9_proc_1 + pi_d_a9_a3_proc_1
      - pi_d_a4_a9_proc_2 + pi_d_a9_a4_proc_2 - pi_d_a5_a9_proc_1
      + pi_d_a9_a5_proc_1 - pi_d_a6_a9_proc_2 - pi_d_a6_a9_proc_1
      + pi_d_a9_a6_proc_2 + pi_d_a9_a6_proc_1 - pi_d_a7_a9_proc_2
      - pi_d_a7_a9_proc_1 + pi_d_a9_a7_proc_2 + pi_d_a9_a7_proc_1
      - pi_d_a8_a9_proc_2 - pi_d_a8_a9_proc_1 + pi_d_a9_a8_proc_2
      + pi_d_a9_a8_proc_1 >= 0
 c36: 1026 pi_p_a9_a8 + 1026 pi_d_a9_a0_proc_1 + 1026 pi_d_a9_a1_proc_1
      + 1026 pi_d_a9_a2_proc_1 + 1026 pi_d_a9_a3_proc_1 + 1026 pi_d_a9_a5_proc_1
      + 1026 pi_d_a9_a6_proc_1 + 1026 pi_d_a9_a7_proc_1 + 1026 pi_d_a9_a8_proc_1
      + pi_y1_a9 + pi_y2_a9_proc_1 >= 0
 c37: 1099 pi_p_a9_a8 + 1099 pi_d_a9_a0_proc_2 + 1099 pi_d_a9_a1_proc_2
      + 1099 pi_d_a9_a2_proc_2 + 1099 pi_d_a9_a4_proc_2 + 1099 pi_d_a9_a6_proc_2
      + 1099 pi_d_a9_a7_proc_2 + 1099 pi_d_a9_a8_proc_2 + pi_y1_a9
      + pi_y2_a9_proc_2 >= 0

Bounds
       pi_y1_a0 Free
       pi_y1_a1 Free
       pi_y1_a2 Free
       pi_y1_a3 Free
       pi_y1_a4 Free
       pi_y1_a5 Free
       pi_y1_a6 Free
       pi_y1_a7 Free
       pi_y1_a8 Free
       pi_y1_a9 Free
End
