benchmark/results/graph__10-1000-0.10-03_12/graph__10-1000-0.10-03_12_QuintonOs_Benders_sub.txt
solution for: Quinton Bounded Benders_dual_sub
objective: 0.000215239
status: OPTIMAL_SOLUTION(2)
pi_p_a3_a4=0.000
pi_p_a4_a5=0.000
pi_p_a5_a6=0.000
pi_d_a2_a3_proc_0=0.000
pi_d_a6_a2_proc_0=0.000
pi_y1_a2=-0.145
pi_y1_a3=-0.207
pi_y1_a4=-0.263
pi_y1_a5=-0.154
pi_y1_a6=-0.230
pi_y2_a2_proc_1=0.145
pi_y2_a2_proc_2=0.145
pi_y2_a5_proc_1=0.003
pi_y2_a6_proc_1=0.230
pi_y2_a6_proc_2=0.230
